p cnf 484 1070
-1 3 0 
1 98 0 
-8 9 0 
-8 86 0 
-98 -99 3 0 
-98 99 101 0 
-99 100 0 
-101 -102 104 0 
-101 102 151 0 
-102 103 0 
-104 105 0 
-104 96 0 
-105 106 0 
-105 94 0 
-106 107 0 
-106 92 0 
-9 10 0 
-9 84 0 
-107 108 0 
-107 90 0 
-108 109 0 
-108 88 0 
-109 110 0 
-109 86 0 
-110 111 0 
-110 84 0 
-111 112 0 
-111 82 0 
-112 113 0 
-112 80 0 
-113 114 0 
-113 78 0 
-114 115 0 
-114 76 0 
-115 116 0 
-115 74 0 
-116 117 0 
-116 72 0 
-10 11 0 
-10 82 0 
-117 118 0 
-117 70 0 
-118 119 0 
-118 68 0 
-119 120 0 
-119 66 0 
-120 121 0 
-120 150 0 
-121 122 0 
-121 149 0 
-122 123 0 
-122 148 0 
-123 124 0 
-123 147 0 
-124 125 0 
-124 146 0 
-125 126 0 
-125 145 0 
-126 127 0 
-126 144 0 
-11 12 0 
-11 80 0 
-127 128 0 
-127 143 0 
-128 129 0 
-128 142 0 
-129 130 0 
-129 141 0 
-130 131 0 
-130 140 0 
-131 132 0 
-131 139 0 
-132 133 0 
-132 138 0 
-133 134 0 
-133 137 0 
-134 135 0 
-134 136 0 
-135 -35 0 
-136 -37 0 
-12 13 0 
-12 78 0 
-137 -39 0 
-138 -41 0 
-139 -43 0 
-140 -45 0 
-141 -47 0 
-142 -49 0 
-143 -51 0 
-144 -53 0 
-145 -55 0 
-146 -57 0 
-13 14 0 
-13 76 0 
-147 -59 0 
-148 -61 0 
-149 -63 0 
-150 -65 0 
-151 -152 188 0 
-151 152 283 0 
-152 153 0 
-152 155 0 
-153 154 0 
-155 156 0 
-156 157 0 
-14 15 0 
-14 74 0 
-157 158 0 
-158 159 0 
-159 160 0 
-160 161 0 
-161 162 0 
-162 163 0 
-163 164 0 
-164 165 0 
-165 166 0 
-166 167 0 
-15 16 0 
-15 72 0 
-167 168 0 
-168 169 0 
-169 170 0 
-170 171 0 
-171 172 0 
-172 173 0 
-173 174 0 
-174 175 0 
-175 176 0 
-176 177 0 
-16 17 0 
-16 70 0 
-177 178 0 
-178 179 0 
-179 180 0 
-180 181 0 
-181 182 0 
-182 183 0 
-183 184 0 
-184 185 0 
-185 186 0 
-186 -187 0 
-17 18 0 
-17 68 0 
-188 189 0 
-188 281 0 
-189 190 0 
-189 279 0 
-190 191 0 
-190 277 0 
-191 192 0 
-191 275 0 
-192 193 0 
-192 273 0 
-193 194 0 
-193 271 0 
-194 195 0 
-194 269 0 
-195 196 0 
-195 267 0 
-1 2 0 
-18 19 0 
-18 66 0 
-196 197 0 
-196 265 0 
-197 198 0 
-197 263 0 
-198 199 0 
-198 261 0 
-199 200 0 
-199 259 0 
-200 201 0 
-200 257 0 
-201 202 0 
-201 255 0 
-202 203 0 
-202 253 0 
-203 204 0 
-203 251 0 
-204 205 0 
-204 249 0 
-205 206 0 
-205 247 0 
-19 20 0 
-19 64 0 
-206 207 0 
-206 245 0 
-207 208 0 
-207 243 0 
-208 209 0 
-208 241 0 
-209 210 0 
-209 239 0 
-210 211 0 
-210 237 0 
-211 212 0 
-211 235 0 
-212 213 0 
-212 233 0 
-213 214 0 
-213 231 0 
-214 215 0 
-214 229 0 
-215 216 0 
-215 227 0 
-20 21 0 
-20 62 0 
-216 217 0 
-216 225 0 
-217 218 0 
-217 223 0 
-218 219 0 
-218 221 0 
-219 -220 35 0 
-219 -35 220 0 
-221 -222 37 0 
-221 -37 222 0 
-223 -224 39 0 
-223 -39 224 0 
-225 -226 41 0 
-225 -41 226 0 
-21 22 0 
-21 60 0 
-227 -228 43 0 
-227 -43 228 0 
-229 -230 45 0 
-229 -45 230 0 
-231 -232 47 0 
-231 -47 232 0 
-233 -234 49 0 
-233 -49 234 0 
-235 -236 51 0 
-235 -51 236 0 
-22 23 0 
-22 58 0 
-237 -238 53 0 
-237 -53 238 0 
-239 -240 55 0 
-239 -55 240 0 
-241 -242 57 0 
-241 -57 242 0 
-243 -244 59 0 
-243 -59 244 0 
-245 -246 61 0 
-245 -61 246 0 
-23 24 0 
-23 56 0 
-247 -248 63 0 
-247 -63 248 0 
-249 -250 65 0 
-249 -65 250 0 
-251 -252 67 0 
-251 -67 252 0 
-253 -254 69 0 
-253 -69 254 0 
-255 -256 71 0 
-255 -71 256 0 
-24 25 0 
-24 54 0 
-257 -258 73 0 
-257 -73 258 0 
-259 -260 75 0 
-259 -75 260 0 
-261 -262 77 0 
-261 -77 262 0 
-263 -264 79 0 
-263 -79 264 0 
-265 -266 81 0 
-265 -81 266 0 
-25 26 0 
-25 52 0 
-267 -268 83 0 
-267 -83 268 0 
-269 -270 85 0 
-269 -85 270 0 
-271 -272 87 0 
-271 -87 272 0 
-273 -274 89 0 
-273 -89 274 0 
-275 -276 91 0 
-275 -91 276 0 
-26 27 0 
-26 50 0 
-277 -278 93 0 
-277 -93 278 0 
-279 -280 95 0 
-279 -95 280 0 
-281 -97 282 0 
-281 -282 97 0 
-283 -284 286 0 
-283 284 381 0 
-284 153 0 
-284 285 0 
-285 187 0 
-27 28 0 
-27 48 0 
-286 287 0 
-286 379 0 
-287 288 0 
-287 377 0 
-288 289 0 
-288 375 0 
-289 290 0 
-289 373 0 
-290 291 0 
-290 371 0 
-291 292 0 
-291 369 0 
-292 293 0 
-292 367 0 
-293 294 0 
-293 365 0 
-294 295 0 
-294 363 0 
-295 296 0 
-295 361 0 
-28 29 0 
-28 46 0 
-296 297 0 
-296 359 0 
-297 298 0 
-297 357 0 
-298 299 0 
-298 355 0 
-299 300 0 
-299 353 0 
-300 301 0 
-300 351 0 
-301 302 0 
-301 349 0 
-302 303 0 
-302 347 0 
-303 304 0 
-303 345 0 
-304 305 0 
-304 343 0 
-305 306 0 
-305 341 0 
-29 30 0 
-29 44 0 
-306 307 0 
-306 339 0 
-307 308 0 
-307 337 0 
-308 309 0 
-308 335 0 
-309 310 0 
-309 333 0 
-310 311 0 
-310 331 0 
-311 312 0 
-311 329 0 
-312 313 0 
-312 327 0 
-313 314 0 
-313 325 0 
-314 315 0 
-314 323 0 
-315 316 0 
-315 321 0 
-30 31 0 
-30 42 0 
-316 317 0 
-316 319 0 
-317 -318 35 0 
-317 -35 318 0 
-319 -320 37 0 
-319 -37 320 0 
-321 -322 39 0 
-321 -39 322 0 
-323 -324 41 0 
-323 -41 324 0 
-325 -326 43 0 
-325 -43 326 0 
-31 32 0 
-31 40 0 
-327 -328 45 0 
-327 -45 328 0 
-329 -330 47 0 
-329 -47 330 0 
-331 -332 49 0 
-331 -49 332 0 
-333 -334 51 0 
-333 -51 334 0 
-335 -336 53 0 
-335 -53 336 0 
-32 33 0 
-32 38 0 
-337 -338 55 0 
-337 -55 338 0 
-339 -340 57 0 
-339 -57 340 0 
-341 -342 59 0 
-341 -59 342 0 
-343 -344 61 0 
-343 -61 344 0 
-345 -346 63 0 
-345 -63 346 0 
-33 34 0 
-33 36 0 
-347 -348 65 0 
-347 -65 348 0 
-349 -350 67 0 
-349 -67 350 0 
-351 -352 69 0 
-351 -69 352 0 
-353 -354 71 0 
-353 -71 354 0 
-355 -356 73 0 
-355 -73 356 0 
-34 35 0 
-357 -358 75 0 
-357 -75 358 0 
-359 -360 77 0 
-359 -77 360 0 
-361 -362 79 0 
-361 -79 362 0 
-363 -364 81 0 
-363 -81 364 0 
-365 -366 83 0 
-365 -83 366 0 
-367 -368 85 0 
-367 -85 368 0 
-369 -370 87 0 
-369 -87 370 0 
-371 -372 89 0 
-371 -89 372 0 
-373 -374 91 0 
-373 -91 374 0 
-375 -376 93 0 
-375 -93 376 0 
-36 37 0 
-377 -378 95 0 
-377 -95 378 0 
-379 -97 380 0 
-379 -380 97 0 
-381 -382 188 0 
-381 382 388 0 
-382 155 0 
-382 383 0 
-383 384 0 
-383 386 0 
-384 385 0 
-386 387 0 
-388 -389 286 0 
-388 389 390 0 
-389 285 0 
-389 383 0 
-390 391 0 
-390 483 0 
-391 392 0 
-391 481 0 
-392 393 0 
-392 479 0 
-393 394 0 
-393 477 0 
-394 395 0 
-394 475 0 
-395 396 0 
-395 473 0 
-38 39 0 
-396 397 0 
-396 471 0 
-397 398 0 
-397 469 0 
-398 399 0 
-398 467 0 
-399 400 0 
-399 465 0 
-400 401 0 
-400 463 0 
-401 402 0 
-401 461 0 
-402 403 0 
-402 459 0 
-403 404 0 
-403 457 0 
-404 405 0 
-404 455 0 
-405 406 0 
-405 453 0 
-406 407 0 
-406 451 0 
-407 408 0 
-407 449 0 
-408 409 0 
-408 447 0 
-409 410 0 
-409 445 0 
-410 411 0 
-410 443 0 
-411 412 0 
-411 441 0 
-412 413 0 
-412 439 0 
-413 414 0 
-413 437 0 
-414 415 0 
-414 435 0 
-415 416 0 
-415 433 0 
-40 41 0 
-416 417 0 
-416 431 0 
-417 418 0 
-417 429 0 
-418 419 0 
-418 427 0 
-419 420 0 
-419 425 0 
-420 421 0 
-420 423 0 
-421 -35 422 0 
-421 -422 35 0 
-423 -37 424 0 
-423 -424 37 0 
-425 -39 426 0 
-425 -426 39 0 
-427 -41 428 0 
-427 -428 41 0 
-429 -430 43 0 
-429 -43 430 0 
-431 -432 45 0 
-431 -45 432 0 
-433 -434 47 0 
-433 -47 434 0 
-435 -436 49 0 
-435 -49 436 0 
-42 43 0 
-437 -438 51 0 
-437 -51 438 0 
-439 -440 53 0 
-439 -53 440 0 
-441 -442 55 0 
-441 -55 442 0 
-443 -444 57 0 
-443 -57 444 0 
-445 -446 59 0 
-445 -59 446 0 
-447 -448 61 0 
-447 -61 448 0 
-449 -450 63 0 
-449 -63 450 0 
-451 -452 65 0 
-451 -65 452 0 
-453 -454 67 0 
-453 -67 454 0 
-455 -456 69 0 
-455 -69 456 0 
-44 45 0 
-457 -458 71 0 
-457 -71 458 0 
-459 -460 73 0 
-459 -73 460 0 
-461 -462 75 0 
-461 -75 462 0 
-463 -464 77 0 
-463 -77 464 0 
-465 -466 79 0 
-465 -79 466 0 
-467 -468 81 0 
-467 -81 468 0 
-469 -470 83 0 
-469 -83 470 0 
-471 -472 85 0 
-471 -85 472 0 
-473 -474 87 0 
-473 -87 474 0 
-475 -476 89 0 
-475 -89 476 0 
-46 47 0 
-477 -478 91 0 
-477 -91 478 0 
-479 -480 93 0 
-479 -93 480 0 
-481 -482 95 0 
-481 -95 482 0 
-483 -97 484 0 
-483 -484 97 0 
-3 4 0 
-3 96 0 
-48 49 0 
-50 51 0 
-52 53 0 
-54 55 0 
-56 57 0 
-4 5 0 
-4 94 0 
-58 59 0 
-60 61 0 
-62 63 0 
-64 65 0 
-66 -67 0 
-5 6 0 
-5 92 0 
-68 -69 0 
-70 -71 0 
-72 -73 0 
-74 -75 0 
-76 -77 0 
-6 7 0 
-6 90 0 
-78 -79 0 
-80 -81 0 
-82 -83 0 
-84 -85 0 
-86 -87 0 
-7 8 0 
-7 88 0 
-88 -89 0 
-90 -91 0 
-92 -93 0 
-94 -95 0 
-96 -97 0 
8 -9 -86 0 
98 -99 -3 0 
98 -3 -101 0 
98 99 -101 0 
99 -100 0 
101 -102 -104 0 
101 -104 -151 0 
101 102 -151 0 
102 -103 0 
104 -105 -96 0 
105 -106 -94 0 
106 -107 -92 0 
9 -10 -84 0 
107 -108 -90 0 
108 -109 -88 0 
109 -110 -86 0 
110 -111 -84 0 
111 -112 -82 0 
112 -113 -80 0 
113 -114 -78 0 
114 -115 -76 0 
115 -116 -74 0 
116 -117 -72 0 
10 -11 -82 0 
117 -118 -70 0 
118 -119 -68 0 
119 -120 -66 0 
120 -121 -150 0 
121 -122 -149 0 
122 -123 -148 0 
123 -124 -147 0 
124 -125 -146 0 
125 -126 -145 0 
126 -127 -144 0 
11 -12 -80 0 
127 -128 -143 0 
128 -129 -142 0 
129 -130 -141 0 
130 -131 -140 0 
131 -132 -139 0 
132 -133 -138 0 
133 -134 -137 0 
134 -135 -136 0 
135 35 0 
136 37 0 
12 -13 -78 0 
137 39 0 
138 41 0 
139 43 0 
140 45 0 
141 47 0 
142 49 0 
143 51 0 
144 53 0 
145 55 0 
146 57 0 
13 -14 -76 0 
147 59 0 
148 61 0 
149 63 0 
150 65 0 
151 -152 -188 0 
151 -188 -283 0 
151 152 -283 0 
152 -153 -155 0 
153 -154 0 
155 -156 0 
156 -157 0 
14 -15 -74 0 
157 -158 0 
158 -159 0 
159 -160 0 
160 -161 0 
161 -162 0 
162 -163 0 
163 -164 0 
164 -165 0 
165 -166 0 
166 -167 0 
15 -16 -72 0 
167 -168 0 
168 -169 0 
169 -170 0 
170 -171 0 
171 -172 0 
172 -173 0 
173 -174 0 
174 -175 0 
175 -176 0 
176 -177 0 
16 -17 -70 0 
177 -178 0 
178 -179 0 
179 -180 0 
180 -181 0 
181 -182 0 
182 -183 0 
183 -184 0 
184 -185 0 
185 -186 0 
186 187 0 
17 -18 -68 0 
188 -189 -281 0 
189 -190 -279 0 
190 -191 -277 0 
191 -192 -275 0 
192 -193 -273 0 
193 -194 -271 0 
194 -195 -269 0 
195 -196 -267 0 
1 -2 0 
18 -19 -66 0 
196 -197 -265 0 
197 -198 -263 0 
198 -199 -261 0 
199 -200 -259 0 
200 -201 -257 0 
201 -202 -255 0 
202 -203 -253 0 
203 -204 -251 0 
204 -205 -249 0 
205 -206 -247 0 
19 -20 -64 0 
206 -207 -245 0 
207 -208 -243 0 
208 -209 -241 0 
209 -210 -239 0 
210 -211 -237 0 
211 -212 -235 0 
212 -213 -233 0 
213 -214 -231 0 
214 -215 -229 0 
215 -216 -227 0 
20 -21 -62 0 
216 -217 -225 0 
217 -218 -223 0 
218 -219 -221 0 
219 -35 -220 0 
219 35 220 0 
221 -37 -222 0 
221 37 222 0 
223 -39 -224 0 
223 39 224 0 
225 -41 -226 0 
225 41 226 0 
21 -22 -60 0 
227 -43 -228 0 
227 43 228 0 
229 -45 -230 0 
229 45 230 0 
231 -47 -232 0 
231 47 232 0 
233 -49 -234 0 
233 49 234 0 
235 -51 -236 0 
235 51 236 0 
22 -23 -58 0 
237 -53 -238 0 
237 53 238 0 
239 -55 -240 0 
239 55 240 0 
241 -57 -242 0 
241 57 242 0 
243 -59 -244 0 
243 59 244 0 
245 -61 -246 0 
245 61 246 0 
23 -24 -56 0 
247 -63 -248 0 
247 63 248 0 
249 -65 -250 0 
249 65 250 0 
251 -67 -252 0 
251 67 252 0 
253 -69 -254 0 
253 69 254 0 
255 -71 -256 0 
255 71 256 0 
24 -25 -54 0 
257 -73 -258 0 
257 73 258 0 
259 -75 -260 0 
259 75 260 0 
261 -77 -262 0 
261 77 262 0 
263 -79 -264 0 
263 79 264 0 
265 -81 -266 0 
265 81 266 0 
25 -26 -52 0 
267 -83 -268 0 
267 83 268 0 
269 -85 -270 0 
269 85 270 0 
271 -87 -272 0 
271 87 272 0 
273 -89 -274 0 
273 89 274 0 
275 -91 -276 0 
275 91 276 0 
26 -27 -50 0 
277 -93 -278 0 
277 93 278 0 
279 -95 -280 0 
279 95 280 0 
281 -97 -282 0 
281 97 282 0 
283 -284 -286 0 
283 -286 -381 0 
283 284 -381 0 
284 -153 -285 0 
285 -187 0 
27 -28 -48 0 
286 -287 -379 0 
287 -288 -377 0 
288 -289 -375 0 
289 -290 -373 0 
290 -291 -371 0 
291 -292 -369 0 
292 -293 -367 0 
293 -294 -365 0 
294 -295 -363 0 
295 -296 -361 0 
28 -29 -46 0 
296 -297 -359 0 
297 -298 -357 0 
298 -299 -355 0 
299 -300 -353 0 
300 -301 -351 0 
301 -302 -349 0 
302 -303 -347 0 
303 -304 -345 0 
304 -305 -343 0 
305 -306 -341 0 
29 -30 -44 0 
306 -307 -339 0 
307 -308 -337 0 
308 -309 -335 0 
309 -310 -333 0 
310 -311 -331 0 
311 -312 -329 0 
312 -313 -327 0 
313 -314 -325 0 
314 -315 -323 0 
315 -316 -321 0 
30 -31 -42 0 
316 -317 -319 0 
317 -35 -318 0 
317 35 318 0 
319 -37 -320 0 
319 37 320 0 
321 -39 -322 0 
321 39 322 0 
323 -41 -324 0 
323 41 324 0 
325 -43 -326 0 
325 43 326 0 
31 -32 -40 0 
327 -45 -328 0 
327 45 328 0 
329 -47 -330 0 
329 47 330 0 
331 -49 -332 0 
331 49 332 0 
333 -51 -334 0 
333 51 334 0 
335 -53 -336 0 
335 53 336 0 
32 -33 -38 0 
337 -55 -338 0 
337 55 338 0 
339 -57 -340 0 
339 57 340 0 
341 -59 -342 0 
341 59 342 0 
343 -61 -344 0 
343 61 344 0 
345 -63 -346 0 
345 63 346 0 
33 -34 -36 0 
347 -65 -348 0 
347 65 348 0 
349 -67 -350 0 
349 67 350 0 
351 -69 -352 0 
351 69 352 0 
353 -71 -354 0 
353 71 354 0 
355 -73 -356 0 
355 73 356 0 
34 -35 0 
357 -75 -358 0 
357 75 358 0 
359 -77 -360 0 
359 77 360 0 
361 -79 -362 0 
361 79 362 0 
363 -81 -364 0 
363 81 364 0 
365 -83 -366 0 
365 83 366 0 
367 -85 -368 0 
367 85 368 0 
369 -87 -370 0 
369 87 370 0 
371 -89 -372 0 
371 89 372 0 
373 -91 -374 0 
373 91 374 0 
375 -93 -376 0 
375 93 376 0 
36 -37 0 
377 -95 -378 0 
377 95 378 0 
379 -97 -380 0 
379 97 380 0 
381 -188 -388 0 
381 -382 -188 0 
381 382 -388 0 
382 -383 -155 0 
383 -384 -386 0 
384 -385 0 
386 -387 0 
388 -286 -390 0 
388 -389 -286 0 
388 389 -390 0 
389 -383 -285 0 
390 -391 -483 0 
391 -392 -481 0 
392 -393 -479 0 
393 -394 -477 0 
394 -395 -475 0 
395 -396 -473 0 
38 -39 0 
396 -397 -471 0 
397 -398 -469 0 
398 -399 -467 0 
399 -400 -465 0 
400 -401 -463 0 
401 -402 -461 0 
402 -403 -459 0 
403 -404 -457 0 
404 -405 -455 0 
405 -406 -453 0 
406 -407 -451 0 
407 -408 -449 0 
408 -409 -447 0 
409 -410 -445 0 
410 -411 -443 0 
411 -412 -441 0 
412 -413 -439 0 
413 -414 -437 0 
414 -415 -435 0 
415 -416 -433 0 
40 -41 0 
416 -417 -431 0 
417 -418 -429 0 
418 -419 -427 0 
419 -420 -425 0 
420 -421 -423 0 
421 -35 -422 0 
421 35 422 0 
423 -37 -424 0 
423 37 424 0 
425 -39 -426 0 
425 39 426 0 
427 -41 -428 0 
427 41 428 0 
429 -43 -430 0 
429 43 430 0 
431 -45 -432 0 
431 45 432 0 
433 -47 -434 0 
433 47 434 0 
435 -49 -436 0 
435 49 436 0 
42 -43 0 
437 -51 -438 0 
437 51 438 0 
439 -53 -440 0 
439 53 440 0 
441 -55 -442 0 
441 55 442 0 
443 -57 -444 0 
443 57 444 0 
445 -59 -446 0 
445 59 446 0 
447 -61 -448 0 
447 61 448 0 
449 -63 -450 0 
449 63 450 0 
451 -65 -452 0 
451 65 452 0 
453 -67 -454 0 
453 67 454 0 
455 -69 -456 0 
455 69 456 0 
44 -45 0 
457 -71 -458 0 
457 71 458 0 
459 -73 -460 0 
459 73 460 0 
461 -75 -462 0 
461 75 462 0 
463 -77 -464 0 
463 77 464 0 
465 -79 -466 0 
465 79 466 0 
467 -81 -468 0 
467 81 468 0 
469 -83 -470 0 
469 83 470 0 
471 -85 -472 0 
471 85 472 0 
473 -87 -474 0 
473 87 474 0 
475 -89 -476 0 
475 89 476 0 
46 -47 0 
477 -91 -478 0 
477 91 478 0 
479 -93 -480 0 
479 93 480 0 
481 -95 -482 0 
481 95 482 0 
483 -97 -484 0 
483 97 484 0 
3 -4 -96 0 
48 -49 0 
50 -51 0 
52 -53 0 
54 -55 0 
56 -57 0 
4 -5 -94 0 
58 -59 0 
60 -61 0 
62 -63 0 
64 -65 0 
66 67 0 
5 -6 -92 0 
68 69 0 
70 71 0 
72 73 0 
74 75 0 
76 77 0 
6 -7 -90 0 
78 79 0 
80 81 0 
82 83 0 
84 85 0 
86 87 0 
7 -8 -88 0 
88 89 0 
90 91 0 
92 93 0 
94 95 0 
96 97 0 
